files/upTests/tupley32-6-2/0001.eprime
language ESSENCE' 1.0

find pain_tuple1: matrix indexed by [int(1)] of int(1, 2)
find pain_tuple2_tuple1: matrix indexed by [int(1)] of int(1)
find pain_tuple2_tuple2: matrix indexed by [int(1)] of int(2)
find pain_tuple3_tuple1: matrix indexed by [int(1)] of int(3)
find pain_tuple3_tuple2: matrix indexed by [int(1)] of int(4)
such that
    pain_tuple1[1] = 2,
    pain_tuple2_tuple1[1] = 1,
    pain_tuple2_tuple2[1] = 2,
    pain_tuple3_tuple1[1] = 3,
    pain_tuple3_tuple2[1] = 4
