files/upTests/tupley32-6-2/0001.eprime.solution
language ESSENCE' 1.0
$ minion Nodes: 1
$ minion TotalTime: 0.000574
$ Savile Row TotalTime: 0.223
letting pain_tuple1 be [2;int(1)]
letting pain_tuple3_tuple2 be [4;int(1)]
letting pain_tuple3_tuple1 be [3;int(1)]
letting pain_tuple2_tuple1 be [1;int(1)]
letting pain_tuple2_tuple2 be [2;int(1)]
